12 48 6 10
11 11 7 13 1 6 1 16 8 11 16 4 20 16 19 18 12 6 4 1 13 5 12 17 14 6 15 16 5 10 5 9 12 12 12 8 11 8 8 5 9 7 10 14 16 11 20 11 
1.84 1.69 0.34 6.84 7.88 1.22 1.21 5.52 6.46 7.87 6.84 5.83 2.74 2.94 3.3 3.97 6.93 4.38 3.26 2.59 6.68 4.97 4.65 1.86 6.14 4.35 2.12 6.83 4.42 5.45 3.65 0.83 4.68 4.46 1.75 3.57 2.31 4.89 4 2.59 3.05 1.89 6.03 6.65 0.56 5.63 4.15 1.68 
1.3 6.08 5.97 2.94 7.29 3.19 5.3 2.03 7.6 1.12 5.56 6.46 0.07 7.34 0.44 4.83 6.4 3.97 0.32 6.16 4.42 3.02 7.53 4.87 6.7 6.39 2.17 7 0.89 1.18 3.53 0.69 1.51 4.58 3.14 2.53 6.24 3.85 4.79 0.39 7.68 7.98 3.88 2.76 0.59 6.06 7.29 5.97 
5.68 3.67 2.01 4.99 1.89 4.09 6.61 3.02 0.37 2.99 7.84 3.18 3.8 1.11 5.93 4.82 7.95 4.09 5.91 4.56 7.62 4.11 4.08 4.67 1.19 0.74 2.53 1.34 0.65 7.83 1.07 2.22 7.58 6.12 4.78 6.61 4.74 1.38 2.19 0 6.67 6.01 5.79 5.66 5.72 2.54 0.28 5.66 
0.75 2.7 5.43 3.55 2.86 4.93 7.81 3.01 2.13 6.83 4.75 1.21 3.85 1.19 7.4 4.61 6.35 6.89 5.03 6.44 4.95 0.52 1.33 1.27 0.46 6.27 6.22 0.32 3.96 4.26 4.18 4.81 0.62 3.93 2.89 3.68 2.06 2.71 2.9 5.86 1.37 4.64 5.77 5.01 7.84 6.74 2.34 2.76 
6.29 4.49 5.38 7.76 2.22 7.96 2.78 3.66 3.11 7.67 3.2 2.24 7.24 5.12 3.94 3.7 4.99 3.92 1.47 1.03 5.24 5.76 6.6 6.15 2.74 3.61 1.62 4.27 4.83 1.19 5.43 1.37 6.62 4.02 1.22 6.05 6.69 2.62 7.01 5.86 3.4 1.21 4.37 2.94 0.59 5.02 0.19 7 
5.32 6.71 1.66 5.03 3.55 0.34 5.21 6.24 4.34 6.31 7.16 1.39 7.72 2.13 5.14 0.18 6.37 6.57 3.41 3.39 2.39 7.13 6.09 2.79 3.3 3.6 6.19 3.37 7.3 1.83 6.03 3.51 3.05 5.1 5.15 7.5 4.14 1.97 0.15 0.46 7.58 2.9 3.7 4.71 1.81 7.91 6.72 6.22 
4 4 4 4 4 4 4 4 4 4 4 4 4 4 4 4 4 4 4 4 4 4 4 4 4 4 4 4 4 4 4 4 4 4 4 4 4 4 4 4 4 4 4 4 4 4 4 4 
7.55 7.22 5.5 4.11 0.82 1.02 7.94 7.54 2.48 5.94 4.3 6.29 5.47 3.74 1.09 0.9 1.16 5.17 6.54 7.88 7.77 5.69 6.27 4.43 6.95 4.72 1.37 5.57 7.41 3.8 7.84 7.47 6.64 6.55 6.78 1.07 6.03 2.69 2.86 5.34 0.71 6.23 6.64 7.3 6.92 0.85 0.42 4.34 
1.37 3.49 1.83 3.77 2.15 1.36 7.2 3.3 0.22 0.84 4.99 4.36 7.99 4 7.61 1.74 1.86 1.31 0.49 1.72 2.63 6.12 2.59 1.59 4.44 0.79 5.87 3.31 1.51 2.3 5.81 1.02 3.61 0.37 7.06 5.03 6.16 3.98 6.74 7.75 7.8 7.53 3.63 4.88 2.6 0.93 3.83 5.04 
0.43 7.06 0.84 5.81 6.59 6.4 7.83 5.38 5.94 3.2 1.99 1.72 5.24 0.81 3.36 3.71 7.07 2.31 2.9 7.01 7.29 5.9 3.74 0.7 6.53 4.23 0.98 4.36 0.03 3.87 0.89 6.3 4.63 3.69 6.64 5.14 3.26 0.74 6.17 7.68 7.45 5.95 0.98 0.83 3.94 2.8 2 2.29 
5.43 5 7.44 4.19 3.75 4.61 6.09 0.33 2.14 3.43 2.47 6.35 0.27 1.29 4.55 6.04 5.82 5.26 6.13 7.1 5.09 6.97 0.57 0.64 4.01 3.21 0.43 1.78 7.53 1.19 1.35 5.3 5.14 1.75 4.13 5.53 2.94 6.7 3.53 2.66 4.67 1.32 2.07 5.81 1.24 7.65 6.34 1.41 
7.65 1.81 7.08 5.68 0.2 1.82 7.98 6.09 6.85 0.48 1.99 7.37 1.25 2.51 1.03 3.09 7.89 2.01 7.18 0.97 0.76 6.62 1.14 3.25 2.03 1.44 7.72 3.96 2.59 7.35 6.42 4.93 2.33 3.68 7.12 7.6 2.35 0.59 5.76 2.42 6.16 1.46 0.4 3.91 5.58 6.89 6.37 4.71 
1 1 1 1 1 1 1 1 1 1 1 1 1 1 1 1 1 1 1 1 1 1 1 1 1 1 1 1 1 1 1 1 1 1 1 1 1 1 1 1 1 1 1 1 1 1 1 1 
1 1 1 1 1 1 1 1 1 1 1 1 1 1 1 1 1 1 1 1 1 1 1 1 1 1 1 1 1 1 1 1 1 1 1 1 1 1 1 1 1 1 1 1 1 1 1 1 
1 1 1 1 1 1 1 1 1 1 1 1 1 1 1 1 1 1 1 1 1 1 1 1 1 1 1 1 1 1 1 1 1 1 1 1 1 1 1 1 1 1 1 1 1 1 1 1 
1 1 1 1 1 1 1 1 1 1 1 1 1 1 1 1 1 1 1 1 1 1 1 1 1 1 1 1 1 1 1 1 1 1 1 1 1 1 1 1 1 1 1 1 1 1 1 1 
1 1 1 1 1 1 1 1 1 1 1 1 1 1 1 1 1 1 1 1 1 1 1 1 1 1 1 1 1 1 1 1 1 1 1 1 1 1 1 1 1 1 1 1 1 1 1 1 
1 1 1 1 1 1 1 1 1 1 1 1 1 1 1 1 1 1 1 1 1 1 1 1 1 1 1 1 1 1 1 1 1 1 1 1 1 1 1 1 1 1 1 1 1 1 1 1 
1 1 1 1 1 1 1 1 1 1 1 1 1 1 1 1 1 1 1 1 1 1 1 1 1 1 1 1 1 1 1 1 1 1 1 1 1 1 1 1 1 1 1 1 1 1 1 1 
1 1 1 1 1 1 1 1 1 1 1 1 1 1 1 1 1 1 1 1 1 1 1 1 1 1 1 1 1 1 1 1 1 1 1 1 1 1 1 1 1 1 1 1 1 1 1 1 
1 1 1 1 1 1 1 1 1 1 1 1 1 1 1 1 1 1 1 1 1 1 1 1 1 1 1 1 1 1 1 1 1 1 1 1 1 1 1 1 1 1 1 1 1 1 1 1 
1 1 1 1 1 1 1 1 1 1 1 1 1 1 1 1 1 1 1 1 1 1 1 1 1 1 1 1 1 1 1 1 1 1 1 1 1 1 1 1 1 1 1 1 1 1 1 1 
1 1 1 1 1 1 1 1 1 1 1 1 1 1 1 1 1 1 1 1 1 1 1 1 1 1 1 1 1 1 1 1 1 1 1 1 1 1 1 1 1 1 1 1 1 1 1 1 
1 1 1 1 1 1 1 1 1 1 1 1 1 1 1 1 1 1 1 1 1 1 1 1 1 1 1 1 1 1 1 1 1 1 1 1 1 1 1 1 1 1 1 1 1 1 1 1 
0.01 0.01 0.01 0.01 0.01 0.01 0.01 0.01 0.01 0.01 0.01 0.01 0.01 0.01 0.01 0.01 0.01 0.01 0.01 0.01 0.01 0.01 0.01 0.01 0.01 0.01 0.01 0.01 0.01 0.01 0.01 0.01 0.01 0.01 0.01 0.01 0.01 0.01 0.01 0.01 0.01 0.01 0.01 0.01 0.01 0.01 0.01 0.01 
0.02 0.02 0.02 0.02 0.02 0.02 0.02 0.02 0.02 0.02 0.02 0.02 0.02 0.02 0.02 0.02 0.02 0.02 0.02 0.02 0.02 0.02 0.02 0.02 0.02 0.02 0.02 0.02 0.02 0.02 0.02 0.02 0.02 0.02 0.02 0.02 0.02 0.02 0.02 0.02 0.02 0.02 0.02 0.02 0.02 0.02 0.02 0.02 
0.03 0.03 0.03 0.03 0.03 0.03 0.03 0.03 0.03 0.03 0.03 0.03 0.03 0.03 0.03 0.03 0.03 0.03 0.03 0.03 0.03 0.03 0.03 0.03 0.03 0.03 0.03 0.03 0.03 0.03 0.03 0.03 0.03 0.03 0.03 0.03 0.03 0.03 0.03 0.03 0.03 0.03 0.03 0.03 0.03 0.03 0.03 0.03 
0.04 0.04 0.04 0.04 0.04 0.04 0.04 0.04 0.04 0.04 0.04 0.04 0.04 0.04 0.04 0.04 0.04 0.04 0.04 0.04 0.04 0.04 0.04 0.04 0.04 0.04 0.04 0.04 0.04 0.04 0.04 0.04 0.04 0.04 0.04 0.04 0.04 0.04 0.04 0.04 0.04 0.04 0.04 0.04 0.04 0.04 0.04 0.04 
0.05 0.05 0.05 0.05 0.05 0.05 0.05 0.05 0.05 0.05 0.05 0.05 0.05 0.05 0.05 0.05 0.05 0.05 0.05 0.05 0.05 0.05 0.05 0.05 0.05 0.05 0.05 0.05 0.05 0.05 0.05 0.05 0.05 0.05 0.05 0.05 0.05 0.05 0.05 0.05 0.05 0.05 0.05 0.05 0.05 0.05 0.05 0.05 
0.06 0.06 0.06 0.06 0.06 0.06 0.06 0.06 0.06 0.06 0.06 0.06 0.06 0.06 0.06 0.06 0.06 0.06 0.06 0.06 0.06 0.06 0.06 0.06 0.06 0.06 0.06 0.06 0.06 0.06 0.06 0.06 0.06 0.06 0.06 0.06 0.06 0.06 0.06 0.06 0.06 0.06 0.06 0.06 0.06 0.06 0.06 0.06 
0.07 0.07 0.07 0.07 0.07 0.07 0.07 0.07 0.07 0.07 0.07 0.07 0.07 0.07 0.07 0.07 0.07 0.07 0.07 0.07 0.07 0.07 0.07 0.07 0.07 0.07 0.07 0.07 0.07 0.07 0.07 0.07 0.07 0.07 0.07 0.07 0.07 0.07 0.07 0.07 0.07 0.07 0.07 0.07 0.07 0.07 0.07 0.07 
0.2 0.2 0.2 0.2 0.2 0.2 0.2 0.2 0.2 0.2 0.2 0.2 0.2 0.2 0.2 0.2 0.2 0.2 0.2 0.2 0.2 0.2 0.2 0.2 0.2 0.2 0.2 0.2 0.2 0.2 0.2 0.2 0.2 0.2 0.2 0.2 0.2 0.2 0.2 0.2 0.2 0.2 0.2 0.2 0.2 0.2 0.2 0.2 
0.4 0.4 0.4 0.4 0.4 0.4 0.4 0.4 0.4 0.4 0.4 0.4 0.4 0.4 0.4 0.4 0.4 0.4 0.4 0.4 0.4 0.4 0.4 0.4 0.4 0.4 0.4 0.4 0.4 0.4 0.4 0.4 0.4 0.4 0.4 0.4 0.4 0.4 0.4 0.4 0.4 0.4 0.4 0.4 0.4 0.4 0.4 0.4 
0.6 0.6 0.6 0.6 0.6 0.6 0.6 0.6 0.6 0.6 0.6 0.6 0.6 0.6 0.6 0.6 0.6 0.6 0.6 0.6 0.6 0.6 0.6 0.6 0.6 0.6 0.6 0.6 0.6 0.6 0.6 0.6 0.6 0.6 0.6 0.6 0.6 0.6 0.6 0.6 0.6 0.6 0.6 0.6 0.6 0.6 0.6 0.6 
0.8 0.8 0.8 0.8 0.8 0.8 0.8 0.8 0.8 0.8 0.8 0.8 0.8 0.8 0.8 0.8 0.8 0.8 0.8 0.8 0.8 0.8 0.8 0.8 0.8 0.8 0.8 0.8 0.8 0.8 0.8 0.8 0.8 0.8 0.8 0.8 0.8 0.8 0.8 0.8 0.8 0.8 0.8 0.8 0.8 0.8 0.8 0.8 
1 1 1 1 1 1 1 1 1 1 1 1 1 1 1 1 1 1 1 1 1 1 1 1 1 1 1 1 1 1 1 1 1 1 1 1 1 1 1 1 1 1 1 1 1 1 1 1 
